c This is an instance of the heur track of PACE 2020 Challenge, see https://pacechallenge.org/2020/ 
c TYPE: infrastracture 
c ORIGIN: https://gitlab.com/rvb/mwcarp-ob 
c DESCRIPTION: a road network from the Ob generator by René van Bevern, Christian Komusiewicz, and Manuel Sorge (cities that are divided into several components by a river) 
p tdp 146 250
1 79
1 69
1 57
1 67
79 92
7 6
7 17
7 8
6 5
6 16
9 27
9 28
9 8
9 10
27 18
27 28
27 46
27 26
10 30
10 11
10 29
30 29
30 11
30 49
15 24
15 5
15 14
15 16
24 23
24 25
20 19
20 21
20 37
19 36
19 12
23 14
23 22
23 33
28 29
28 47
29 48
35 34
35 26
35 44
34 25
34 42
34 33
36 37
36 50
56 43
56 57
56 67
56 55
43 42
43 44
58 45
58 57
58 69
45 44
61 60
61 51
61 62
60 50
60 87
64 53
64 65
64 78
64 63
53 40
53 54
71 70
71 81
71 72
70 59
70 80
70 69
74 73
74 48
74 83
74 84
74 75
73 72
73 83
80 94
80 81
94 108
94 95
94 93
83 72
83 97
83 98
83 96
72 48
72 47
72 82
88 89
88 77
88 87
88 102
89 90
89 103
89 78
108 121
108 107
96 82
96 95
96 109
96 97
82 81
97 110
97 98
110 124
110 111
110 109
99 100
99 85
99 98
99 112
100 113
100 86
104 90
104 105
104 117
90 66
90 91
105 118
105 91
105 106
118 117
118 119
112 126
112 111
112 113
126 127
126 125
120 121
120 107
121 122
121 131
135 127
135 134
135 146
127 113
2 68
2 13
2 3
68 12
13 12
13 21
3 4
3 22
4 5
4 14
22 21
22 32
16 17
16 25
17 26
8 18
21 31
25 26
32 31
32 39
32 33
33 40
46 59
46 47
48 47
48 49
49 76
31 38
38 37
38 39
38 52
39 40
39 63
40 41
42 41
42 55
44 57
37 51
52 51
52 62
41 54
55 54
55 66
50 51
54 65
67 66
87 101
62 63
62 77
65 66
78 77
81 95
84 98
84 85
76 75
76 86
75 85
86 85
92 91
92 106
95 122
98 111
102 115
102 101
102 103
103 116
93 107
109 123
101 114
115 114
115 116
115 129
116 138
116 117
117 138
117 139
124 123
124 144
124 125
111 125
125 134
114 128
138 137
138 139
139 119
139 140
119 106
119 130
130 140
122 123
122 132
131 141
131 132
123 133
134 145
128 129
128 136
129 137
141 142
132 133
132 142
133 143
142 143
145 144
145 146
136 137
143 144
